SPARKNaCl/why3-z3/sparknacl.adb_1362_68_index_check3_1.smt2
;; produced by z3_gnatprove.drv ;;
(set-info :smt-lib-version 2.5)
(set-info :source |VC generated by SPARK 2014|)
(set-info :category industrial)
(set-info :status unknown)
;;; generated by SMT-LIB2 driver
;;; SMT-LIB2 driver: bit-vectors, common part
;;; SMT-LIB2: integer arithmetic
(declare-datatypes ()
  ((int__ref (int__refqtmk (int__content Int)))))

(declare-datatypes ()
  ((bool__ref (bool__refqtmk (bool__content Bool)))))

(declare-sort tinteger_32B 0)

;; "tinteger_32B'int"
(declare-fun tinteger_32Bqtint (tinteger_32B) Int)

;; "tinteger_32B'axiom"
(assert
  (forall ((i tinteger_32B))
    (and
      (<= (- 2147483648) (tinteger_32Bqtint i))
      (<= (tinteger_32Bqtint i) 2147483647))))

;; "in_range"
(define-fun in_range ((x Int)) Bool
  (and (<= (- 2147483648) x) (<= x 2147483647)))

(declare-sort byte 0)

;; "to_rep"
(define-fun to_rep ((x tinteger_32B)) Int
  (tinteger_32Bqtint x))

;; "of_rep"
(declare-fun of_rep (Int) tinteger_32B)

;; "inversion_axiom"
(assert
  (forall ((x tinteger_32B))
    (! (= (of_rep (to_rep x)) x) :pattern ((to_rep x)) )))

;; "range_axiom"
(assert
  (forall ((x tinteger_32B))
    (! (in_range (to_rep x)) :pattern ((to_rep x)) )))

;; "coerce_axiom"
(assert
  (forall ((x Int))
    (! (=> (in_range x) (= (to_rep (of_rep x)) x)) :pattern ((to_rep
                                                               (of_rep x))) )))

;; "in_range"
(define-fun in_range1 ((x Int)) Bool
  (and (<= 0 x) (<= x 2147483647)))

;; "to_rep"
(declare-fun to_rep1 (byte) (_ BitVec 8))

;; "of_rep"
(declare-fun of_rep1 ((_ BitVec 8)) byte)

;; "inversion_axiom"
(assert
  (forall ((x byte)) (! (= (of_rep1 (to_rep1 x)) x) :pattern ((to_rep1 x)) )))

;; "range_axiom"
(assert true)

;; "coerce_axiom"
(assert
  (forall ((x (_ BitVec 8)))
    (! (= (to_rep1 (of_rep1 x)) x) :pattern ((to_rep1 (of_rep1 x))) )))

(declare-sort map1 0)

;; "has_bounds"
(declare-fun has_bounds (map1
  Int
  Int) Bool)

;; "get"
(declare-fun get (map1
  Int) byte)

(declare-datatypes ()
  ((t (tqtmk (rec__first tinteger_32B)(rec__last tinteger_32B)))))

;; "dynamic_property"
(define-fun dynamic_property ((range_first Int) (range_last Int) (low Int) (high Int)) Bool
  (and
    (in_range low)
    (and
      (in_range high)
      (=> (<= low high) (and (in_range1 low) (in_range1 high))))))

(declare-datatypes ()
  ((us_t (us_tqtmk (elts map1)(rt t)))))

;; "to_array"
(define-fun to_array ((a us_t)) map1
  (elts a))

;; "first"
(define-fun first ((a us_t)) Int
  (to_rep (rec__first (rt a))))

;; "last"
(define-fun last ((a us_t)) Int
  (to_rep (rec__last (rt a))))

;; "well_formed"
(define-fun well_formed ((a us_t)) Bool
  (has_bounds
    (elts a)
    (to_rep (rec__first (rt a)))
    (to_rep (rec__last (rt a)))))

(declare-const x us_t)

(declare-const y us_t)

;; "dynamic_invariant"
(define-fun dynamic_invariant ((temp___expr_387 us_t) (temp___is_init_383 Bool) (temp___skip_constant_384 Bool) (temp___do_toplevel_385 Bool) (temp___do_typ_inv_386 Bool)) Bool
  (and
    (=>
      (not (= temp___skip_constant_384 true))
      (dynamic_property
        0
        2147483647
        (first temp___expr_387)
        (last temp___expr_387)))
    (well_formed temp___expr_387)))

;; "Assume"
(assert (dynamic_invariant x true false true true))

;; "Assume"
(assert (dynamic_invariant y true false true true))

;; "Assume"
(assert (and (= (first x) (first y)) (= (last x) (last y))))

(declare-const d Bool)

;; "d'unused"
(define-fun dqtunused () bool__ref
  (bool__refqtmk d))

;; "H"
(assert (= d true))

;; "temp___1437"
(define-fun temp___1437 () Int
  (first x))

;; "first'result'unused"
(define-fun firstqtresultqtunused () Int
  temp___1437)

;; "temp___1438"
(define-fun temp___1438 () Int
  (last x))

;; "last'result'unused"
(define-fun lastqtresultqtunused () Int
  temp___1438)

(declare-const i Int)

;; "i'unused"
(define-fun iqtunused () int__ref
  (int__refqtmk i))

;; "H"
(assert (= i temp___1437))

;; "int__content'result'unused"
(define-fun int__contentqtresultqtunused () Int
  i)

;; "o"
(define-fun o () Bool
  (ite (<= i temp___1438) true false))

;; "infix <='result'unused"
(define-fun infix_lseqqtresultqtunused () Bool
  o)

;; "int__content'result'unused"
(define-fun int__contentqtresultqtunused1 () Int
  i)

;; "o"
(define-fun o1 () Bool
  (ite (<= temp___1437 i) true false))

;; "infix <='result'unused"
(define-fun infix_lseqqtresultqtunused1 () Bool
  o1)

;; "o"
(define-fun o2 () Bool
  (and o1 o))

;; "andb'result'unused"
(define-fun andbqtresultqtunused () Bool
  o2)

;; "H"
(assert (= o2 true))

;; "temp___loop_entry_1441'unused"
(define-fun temp___loop_entry_1441qtunused () Bool
  d)

;; "bool__content'result'unused"
(define-fun bool__contentqtresultqtunused () Bool
  d)

;; "int__content'result'unused"
(define-fun int__contentqtresultqtunused2 () Int
  i)

;; "Assert"
(assert (and (<= (first y) i) (<= i (last y))))

;; "o"
(define-fun o3 () map1
  (to_array y))

;; "to_array'result'unused"
(define-fun to_arrayqtresultqtunused () map1
  o3)

;; "o"
(define-fun o4 () byte
  (get o3 i))

;; "get'result'unused"
(define-fun getqtresultqtunused () byte
  o4)

(declare-const o5 (_ BitVec 8))

;; "Ensures"
(assert (= (to_rep1 o4) o5))

;; "to_rep'result'unused"
(define-fun to_repqtresultqtunused () (_ BitVec 8)
  o5)

;; "int__content'result'unused"
(define-fun int__contentqtresultqtunused3 () Int
  i)

;; "o"
(define-fun o6 () map1
  (to_array x))

;; "to_array'result'unused"
(define-fun to_arrayqtresultqtunused1 () map1
  o6)

;; "o"
(define-fun o7 () byte
  (get o6 i))

;; "get'result'unused"
(define-fun getqtresultqtunused1 () byte
  o7)

(declare-const o8 (_ BitVec 8))

;; "Ensures"
(assert (= (to_rep1 o7) o8))

;; "to_rep'result'unused"
(define-fun to_repqtresultqtunused1 () (_ BitVec 8)
  o8)

;; "o"
(define-fun o9 () Bool
  (ite (= o8 o5) true false))

;; "eq'result'unused"
(define-fun eqqtresultqtunused () Bool
  o9)

;; "bool__content'result'unused"
(define-fun bool__contentqtresultqtunused1 () Bool
  d)

;; "o"
(define-fun o10 () Bool
  (and d o9))

;; "andb'result'unused"
(define-fun andbqtresultqtunused1 () Bool
  o10)

(declare-const d1 Bool)

;; "d'unused"
(define-fun dqtunused1 () bool__ref
  (bool__refqtmk d1))

;; "H"
(assert (= d1 o10))

(declare-const usf Int)

(declare-const anyqtresultqtunused Int)

;; "H"
(assert (= anyqtresultqtunused usf))

(declare-const jqtunused Int)

;; "H"
(assert (= jqtunused usf))

(declare-const int__contentqtresultqtunused4 Int)

;; "H"
(assert (= int__contentqtresultqtunused4 i))

(declare-const o11 Bool)

;; "H"
(assert (= o11 (ite (<= usf i) true false)))

(declare-const infix_lseqqtresultqtunused2 Bool)

;; "H"
(assert (= infix_lseqqtresultqtunused2 o11))

(declare-const o12 Int)

;; "H"
(assert (= o12 (first x)))

(declare-const firstqtresultqtunused1 Int)

;; "H"
(assert (= firstqtresultqtunused1 o12))

(declare-const o13 Bool)

;; "H"
(assert (= o13 (ite (<= o12 usf) true false)))

(declare-const infix_lseqqtresultqtunused3 Bool)

;; "H"
(assert (= infix_lseqqtresultqtunused3 o13))

(declare-const andbqtresultqtunused2 Bool)

;; "H"
(assert (= andbqtresultqtunused2 (and o13 o11)))

;; "_f"
(define-fun usf1 () Bool
  (ite (forall ((j Int))
         (=>
           (and (<= (first x) j) (<= j i))
           (= (to_rep1 (get (to_array x) j)) (to_rep1 (get (to_array y) j)))))
    true
    false))

;; "any'result'unused"
(define-fun anyqtresultqtunused1 () Bool
  usf1)

;; "bool__content'result'unused"
(define-fun bool__contentqtresultqtunused2 () Bool
  d1)

;; "bool_eq'result'unused"
(define-fun bool_eqqtresultqtunused () Bool
  (ite (= d1 usf1) true false))

(declare-const d2 Bool)

(declare-const i1 Int)

;; "i'unused"
(define-fun iqtunused1 () int__ref
  (int__refqtmk i1))

;; "d'unused"
(define-fun dqtunused2 () bool__ref
  (bool__refqtmk d2))

;; "LoopInvariant"
(assert
  (=
    (= d2 true)
    (forall ((j Int))
      (=>
        (and (<= (first x) j) (<= j i1))
        (= (to_rep1 (get (to_array x) j)) (to_rep1 (get (to_array y) j)))))))

;; "Assume"
(assert
  (= (and (ite true true false) (ite (and (<= (first x) i1) (<= i1 (last x)))
                                  true
                                  false)) true))

;; "int__content'result'unused"
(define-fun int__contentqtresultqtunused5 () Int
  i1)

;; "infix ='result'unused"
(define-fun infix_eqqtresultqtunused () Bool
  (ite (= i1 temp___1438) true false))

;; "H"
(assert (not (= i1 temp___1438)))

;; "int__content'result'unused"
(define-fun int__contentqtresultqtunused6 () Int
  i1)

;; "o"
(define-fun o14 () Int
  (+ i1 1))

;; "infix +'result'unused"
(define-fun infix_plqtresultqtunused () Int
  o14)

(declare-const i2 Int)

;; "i'unused"
(define-fun iqtunused2 () int__ref
  (int__refqtmk i2))

;; "H"
(assert (= i2 o14))

;; "int__content'result'unused"
(define-fun int__contentqtresultqtunused7 () Int
  i2)

;; "Assert"
(assert (and (<= (first y) i2) (<= i2 (last y))))

;; "o"
(define-fun o15 () map1
  (to_array y))

;; "to_array'result'unused"
(define-fun to_arrayqtresultqtunused2 () map1
  o15)

;; "o"
(define-fun o16 () byte
  (get o15 i2))

;; "get'result'unused"
(define-fun getqtresultqtunused2 () byte
  o16)

(declare-const o17 (_ BitVec 8))

;; "Ensures"
(assert (= (to_rep1 o16) o17))

;; "to_rep'result'unused"
(define-fun to_repqtresultqtunused2 () (_ BitVec 8)
  o17)

;; "int__content'result'unused"
(define-fun int__contentqtresultqtunused8 () Int
  i2)

;; "o"
(define-fun o18 () map1
  (to_array x))

;; "to_array'result'unused"
(define-fun to_arrayqtresultqtunused3 () map1
  o18)

;; "o"
(define-fun o19 () byte
  (get o18 i2))

;; "get'result'unused"
(define-fun getqtresultqtunused3 () byte
  o19)

(declare-const o20 (_ BitVec 8))

;; "Ensures"
(assert (= (to_rep1 o19) o20))

;; "to_rep'result'unused"
(define-fun to_repqtresultqtunused3 () (_ BitVec 8)
  o20)

;; "o"
(define-fun o21 () Bool
  (ite (= o20 o17) true false))

;; "eq'result'unused"
(define-fun eqqtresultqtunused1 () Bool
  o21)

;; "bool__content'result'unused"
(define-fun bool__contentqtresultqtunused3 () Bool
  d2)

;; "o"
(define-fun o22 () Bool
  (and d2 o21))

;; "andb'result'unused"
(define-fun andbqtresultqtunused3 () Bool
  o22)

(declare-const d3 Bool)

;; "d'unused"
(define-fun dqtunused3 () bool__ref
  (bool__refqtmk d3))

;; "H"
(assert (= d3 o22))

(declare-const usf2 Int)

;; "any'result'unused"
(define-fun anyqtresultqtunused2 () Int
  usf2)

;; "j'unused"
(define-fun jqtunused1 () Int
  usf2)

;; "int__content'result'unused"
(define-fun int__contentqtresultqtunused9 () Int
  i2)

;; "o"
(define-fun o23 () Bool
  (ite (<= usf2 i2) true false))

;; "infix <='result'unused"
(define-fun infix_lseqqtresultqtunused4 () Bool
  o23)

;; "o"
(define-fun o24 () Int
  (first x))

;; "first'result'unused"
(define-fun firstqtresultqtunused2 () Int
  o24)

;; "o"
(define-fun o25 () Bool
  (ite (<= o24 usf2) true false))

;; "infix <='result'unused"
(define-fun infix_lseqqtresultqtunused5 () Bool
  o25)

;; "o"
(define-fun o26 () Bool
  (and o25 o23))

;; "andb'result'unused"
(define-fun andbqtresultqtunused4 () Bool
  o26)

;; "H"
(assert (= o26 true))

;; Goal "def'vc"
;; File "sparknacl.ads", line 114, characters 0-0
(assert
  (not (<= (first y) usf2)))

(check-sat)
